networks/zoo_108_1718/zoo_108_1718.txt
Number of groups: 61
Flow 3: {4 58} 
Flow 10: {19 11} {11 65} 
Flow 15: {40 9} {9 20} {20 18} {18 72} 
Flow 19: {20 22} {22 76} 
Flow 20: {1 29} {29 31} {31 23} {23 77} 
Flow 27: {14 30} {30 84} 
Flow 30: {33 87} 
Flow 58: {2 5} {5 8} {8 62} 
Flow 124: {3 29} {29 50} {50 32} {32 86} 
Flow 134: {43 42} {42 96} 
Flow 174: {4 31} {31 14} {14 47} {47 101} 
Flow 211: {5 9} {9 40} {40 54} {54 108} 
Flow 233: {6 49} {49 13} {13 25} {25 26} {26 80} 
Flow 313: {8 5} {5 49} {49 53} 
Flow 347: {13 43} {43 36} {36 90} 
Flow 348: {9 49} {49 17} {17 37} {37 91} 
Flow 371: {11 19} {19 20} {20 74} 
Flow 394: {25 13} {13 28} {28 82} 
Flow 397: {12 25} {25 53} {53 34} {34 88} 
Flow 493: {43 41} {41 95} 
Flow 508: {15 28} {28 29} {29 3} {3 57} 
Flow 566: {28 13} {13 40} {40 94} 
Flow 577: {16 50} {50 29} {29 14} {14 52} {52 106} 
Flow 583: {31 4} {4 58} 
Flow 595: {17 20} {20 21} {21 75} 
Flow 616: {43 44} {44 98} 
Flow 637: {18 20} {20 17} {17 43} {43 97} 
Flow 682: {21 20} {20 9} {9 5} {5 2} {2 56} 
Flow 711: {9 39} {39 7} {7 61} 
Flow 716: {22 20} {20 19} {19 73} 
Flow 777: {23 31} {31 34} {34 48} {48 102} 
Flow 829: {24 31} {31 50} {50 104} 
Flow 830: {31 29} {29 13} {13 51} {51 105} 
Flow 870: {26 25} {25 79} 
Flow 966: {30 14} {14 68} 
Flow 997: {29 28} {28 15} {15 69} 
Flow 1039: {32 31} {31 4} {4 58} 
Flow 1074: {32 50} 
Flow 1106: {34 53} {53 25} {25 12} {12 66} 
Flow 1163: {35 17} {17 49} {49 31} {31 45} {45 99} 
Flow 1185: {36 43} 
Flow 1191: {37 17} 
Flow 1219: {38 49} {49 6} {6 60} 
Flow 1221: {38 9} {9 63} 
Flow 1260: {39 9} {9 38} 
Flow 1263: {7 49} {49 103} 
Flow 1325: {41 43} 
Flow 1338: {42 43} {43 17} {17 71} 
Flow 1396: {44 43} {43 13} {13 29} {29 83} 
Flow 1407: {45 31} {31 49} {49 5} {5 59} 
Flow 1431: {46 29} {29 1} {1 55} 
Flow 1488: {47 14} {14 31} {31 24} {24 78} 
Flow 1516: {48 34} {34 31} {31 32} 
Flow 1540: {28 16} {16 70} 
Flow 1581: {50 31} {31 4} Flow 1602: {50 16} {16 28} {28 27} {27 81} 
Flow 1608: {50 31} {31 33} {33 87} 
Flow 1614: {49 7} {7 39} {39 93} 
Flow 1645: {51 13} {13 49} {49 38} {38 92} 
Flow 1663: {52 14} {14 29} {29 46} {46 100} 
Flow 1665: {31 33} {33 53} {53 107} 
Flow 1675: {53 49} {49 9} {9 10} {10 64} 
Flow 1692: {53 33} Flow 1693: {53 33} {33 31} {31 85} 
Flow 1695: {53 33} {33 87} 
Flow 1697: {17 35} {35 89} 
Flow 1716: {54 40} {40 13} {13 67} 
Time taken running everything: 349 seconds
