networks/zoo_108_1718/zoo_108_1718.sol
<?xml version = "1.0" encoding="UTF-8" standalone="yes"?>
<CPLEXSolution version="1.2">
 <header
   problemName="networks/zoo_108_1718/zoo_108_1718.lp"
   solutionName="incumbent"
   solutionIndex="-1"
   objectiveValue="61"
   solutionTypeValue="3"
   solutionTypeString="primal"
   solutionStatusValue="101"
   solutionStatusString="integer optimal solution"
   solutionMethodString="mip"
   primalFeasible="1"
   dualFeasible="1"
   MIPNodes="1203"
   MIPIterations="166890"
   writeLevel="3"/>
 <quality
   epInt="1.0000000000000001e-05"
   epRHS="9.9999999999999995e-07"
   maxIntInfeas="0"
   maxPrimalInfeas="1.7763568394002505e-15"
   maxX="4"
   maxSlack="10"/>
 <variables>
  <variable name="Y(7,8)" index="655" value="1"/>
  <variable name="Y(10,11)" index="982" value="1"/>
  <variable name="Y(26,29)" index="2728" value="1"/>
  <variable name="Y(34,37)" index="3600" value="1"/>
  <variable name="Y(39,42)" index="4145" value="1"/>
  <variable name="Y(86,40)" index="9219" value="1"/>
  <variable name="Y(143,52)" index="15387" value="1"/>
  <variable name="Y(146,1)" index="15660" value="1"/>
  <variable name="Y(185,12)" index="19883" value="1"/>
  <variable name="Y(246,39)" index="26498" value="1"/>
  <variable name="Y(285,45)" index="30716" value="1"/>
  <variable name="Y(291,2)" index="31321" value="1"/>
  <variable name="Y(368,19)" index="39654" value="1"/>
  <variable name="Y(380,53)" index="40984" value="1"/>
  <variable name="Y(397,34)" index="42801" value="1"/>
  <variable name="Y(424,22)" index="45705" value="1"/>
  <variable name="Y(521,32)" index="56191" value="1"/>
  <variable name="Y(526,46)" index="56745" value="1"/>
  <variable name="Y(547,21)" index="58988" value="1"/>
  <variable name="Y(561,35)" index="60514" value="1"/>
  <variable name="Y(579,54)" index="62477" value="1"/>
  <variable name="Y(610,36)" index="65807" value="1"/>
  <variable name="Y(637,20)" index="68707" value="1"/>
  <variable name="Y(684,5)" index="73768" value="1"/>
  <variable name="Y(716,19)" index="77238" value="1"/>
  <variable name="Y(777,48)" index="83855" value="1"/>
  <variable name="Y(812,33)" index="87620" value="1"/>
  <variable name="Y(870,25)" index="93876" value="1"/>
  <variable name="Y(966,14)" index="104233" value="1"/>
  <variable name="Y(997,15)" index="107582" value="1"/>
  <variable name="Y(998,16)" index="107691" value="1"/>
  <variable name="Y(1000,18)" index="107909" value="1"/>
  <variable name="Y(1060,30)" index="114401" value="1"/>
  <variable name="Y(1074,50)" index="115933" value="1"/>
  <variable name="Y(1117,26)" index="120553" value="1"/>
  <variable name="Y(1152,17)" index="124324" value="1"/>
  <variable name="Y(1180,28)" index="127359" value="1"/>
  <variable name="Y(1207,49)" index="130296" value="1"/>
  <variable name="Y(1219,6)" index="131549" value="1"/>
  <variable name="Y(1221,9)" index="131768" value="1"/>
  <variable name="Y(1260,38)" index="136009" value="1"/>
  <variable name="Y(1272,7)" index="137274" value="1"/>
  <variable name="Y(1329,41)" index="143464" value="1"/>
  <variable name="Y(1339,20)" index="144523" value="1"/>
  <variable name="Y(1352,29)" index="145936" value="1"/>
  <variable name="Y(1399,43)" index="151026" value="1"/>
  <variable name="Y(1421,31)" index="153390" value="1"/>
  <variable name="Y(1434,4)" index="154767" value="1"/>
  <variable name="Y(1469,47)" index="158590" value="1"/>
  <variable name="Y(1487,23)" index="160510" value="1"/>
  <variable name="Y(1516,31)" index="163650" value="1"/>
  <variable name="Y(1602,27)" index="172934" value="1"/>
  <variable name="Y(1625,51)" index="175442" value="1"/>
  <variable name="Y(1649,49)" index="178032" value="1"/>
  <variable name="Y(1652,3)" index="178310" value="1"/>
  <variable name="Y(1665,33)" index="179744" value="1"/>
  <variable name="Y(1675,10)" index="180801" value="1"/>
  <variable name="Y(1686,24)" index="182003" value="1"/>
  <variable name="Y(1703,41)" index="183856" value="1"/>
  <variable name="Y(1706,44)" index="184183" value="1"/>
  <variable name="Y(1716,13)" index="185232" value="1"/>
  <variable name="X(1,29,26)" index="185569" value="1"/>
  <variable name="X(1,55,146)" index="187407" value="1"/>
  <variable name="X(2,5,86)" index="189065" value="1"/>
  <variable name="X(2,56,291)" index="190988" value="1"/>
  <variable name="X(3,29,143)" index="192558" value="1"/>
  <variable name="X(3,57,1652)" index="195785" value="1"/>
  <variable name="X(4,31,146)" index="195997" value="1"/>
  <variable name="X(4,58,1434)" index="199003" value="1"/>
  <variable name="X(5,2,291)" index="199578" value="1"/>
  <variable name="X(5,8,7)" index="201012" value="1"/>
  <variable name="X(5,9,86)" index="202809" value="1"/>
  <variable name="X(5,49,185)" index="204626" value="1"/>
  <variable name="X(5,59,684)" index="206843" value="1"/>
  <variable name="X(6,49,246)" index="208123" value="1"/>
  <variable name="X(6,60,1219)" index="210814" value="1"/>
  <variable name="X(7,39,246)" index="211559" value="1"/>
  <variable name="X(7,49,285)" index="213316" value="1"/>
  <variable name="X(7,61,1272)" index="216021" value="1"/>
  <variable name="X(8,5,291)" index="216758" value="1"/>
  <variable name="X(8,62,7)" index="218192" value="1"/>
  <variable name="X(9,5,684)" index="220587" value="1"/>
  <variable name="X(9,10,1675)" index="223296" value="1"/>
  <variable name="X(9,20,547)" index="223886" value="1"/>
  <variable name="X(9,38,1260)" index="226317" value="1"/>
  <variable name="X(9,39,1272)" index="228047" value="1"/>
  <variable name="X(9,40,86)" index="228579" value="1"/>
  <variable name="X(9,49,380)" index="230591" value="1"/>
  <variable name="X(9,63,1221)" index="233150" value="1"/>
  <variable name="X(10,64,1675)" index="235322" value="1"/>
  <variable name="X(11,19,368)" index="235733" value="1"/>
  <variable name="X(11,65,10)" index="237093" value="1"/>
  <variable name="X(12,25,397)" index="239198" value="1"/>
  <variable name="X(12,66,185)" index="240704" value="1"/>
  <variable name="X(13,25,185)" index="242422" value="1"/>
  <variable name="X(13,28,1180)" index="245135" value="1"/>
  <variable name="X(13,29,1352)" index="247025" value="1"/>
  <variable name="X(13,40,579)" index="247970" value="1"/>
  <variable name="X(13,43,1703)" index="250812" value="1"/>
  <variable name="X(13,49,1649)" index="252476" value="1"/>
  <variable name="X(13,51,1625)" index="254170" value="1"/>
  <variable name="X(13,67,1716)" index="255979" value="1"/>
  <variable name="X(14,29,1652)" index="257633" value="1"/>
  <variable name="X(14,30,1060)" index="258759" value="1"/>
  <variable name="X(14,31,1487)" index="260904" value="1"/>
  <variable name="X(14,47,1469)" index="262604" value="1"/>
  <variable name="X(14,52,143)" index="262996" value="1"/>
  <variable name="X(14,68,966)" index="265537" value="1"/>
  <variable name="X(15,28,526)" index="266815" value="1"/>
  <variable name="X(15,69,997)" index="269004" value="1"/>
  <variable name="X(16,28,1602)" index="271327" value="1"/>
  <variable name="X(16,50,521)" index="271964" value="1"/>
  <variable name="X(16,70,998)" index="274159" value="1"/>
  <variable name="X(17,20,1339)" index="276218" value="1"/>
  <variable name="X(17,35,561)" index="277158" value="1"/>
  <variable name="X(17,37,34)" index="278349" value="1"/>
  <variable name="X(17,43,610)" index="280643" value="1"/>
  <variable name="X(17,49,1207)" index="282958" value="1"/>
  <variable name="X(17,71,1152)" index="284621" value="1"/>
  <variable name="X(18,20,637)" index="285824" value="1"/>
  <variable name="X(18,72,1000)" index="287905" value="1"/>
  <variable name="X(19,11,10)" index="288633" value="1"/>
  <variable name="X(19,20,368)" index="290709" value="1"/>
  <variable name="X(19,73,716)" index="292775" value="1"/>
  <variable name="X(20,9,684)" index="294461" value="1"/>
  <variable name="X(20,17,637)" index="296132" value="1"/>
  <variable name="X(20,18,1000)" index="298213" value="1"/>
  <variable name="X(20,19,716)" index="299647" value="1"/>
  <variable name="X(20,21,547)" index="301196" value="1"/>
  <variable name="X(20,22,424)" index="302791" value="1"/>
  <variable name="X(20,74,1339)" index="305424" value="1"/>
  <variable name="X(21,20,684)" index="306487" value="1"/>
  <variable name="X(21,75,547)" index="308068" value="1"/>
  <variable name="X(22,20,716)" index="309955" value="1"/>
  <variable name="X(22,76,424)" index="311381" value="1"/>
  <variable name="X(23,31,777)" index="313452" value="1"/>
  <variable name="X(23,77,1487)" index="315880" value="1"/>
  <variable name="X(24,31,812)" index="316923" value="1"/>
  <variable name="X(24,78,1686)" index="319515" value="1"/>
  <variable name="X(25,12,185)" index="319732" value="1"/>
  <variable name="X(25,13,1703)" index="322968" value="1"/>
  <variable name="X(25,26,1117)" index="324100" value="1"/>
  <variable name="X(25,53,397)" index="325098" value="1"/>
  <variable name="X(25,79,870)" index="327289" value="1"/>
  <variable name="X(26,25,870)" index="329007" value="1"/>
  <variable name="X(26,80,1117)" index="330972" value="1"/>
  <variable name="X(27,81,1602)" index="333175" value="1"/>
  <variable name="X(28,13,579)" index="333870" value="1"/>
  <variable name="X(28,15,997)" index="336006" value="1"/>
  <variable name="X(28,16,521)" index="337248" value="1"/>
  <variable name="X(28,27,1602)" index="340047" value="1"/>
  <variable name="X(28,29,526)" index="340689" value="1"/>
  <variable name="X(28,82,1180)" index="343061" value="1"/>
  <variable name="X(29,1,146)" index="343745" value="1"/>
  <variable name="X(29,3,1652)" index="346969" value="1"/>
  <variable name="X(29,13,1625)" index="348660" value="1"/>
  <variable name="X(29,14,143)" index="348896" value="1"/>
  <variable name="X(29,28,997)" index="351468" value="1"/>
  <variable name="X(29,31,1434)" index="353623" value="1"/>
  <variable name="X(29,46,526)" index="354433" value="1"/>
  <variable name="X(29,50,1352)" index="356977" value="1"/>
  <variable name="X(29,83,26)" index="357369" value="1"/>
  <variable name="X(30,14,966)" index="360027" value="1"/>
  <variable name="X(30,84,1060)" index="361839" value="1"/>
  <variable name="X(31,4,1434)" index="363931" value="1"/>
  <variable name="X(31,14,1060)" index="365275" value="1"/>
  <variable name="X(31,23,1487)" index="367420" value="1"/>
  <variable name="X(31,24,1686)" index="369337" value="1"/>
  <variable name="X(31,29,146)" index="369515" value="1"/>
  <variable name="X(31,32,1516)" index="372603" value="1"/>
  <variable name="X(31,33,812)" index="373617" value="1"/>
  <variable name="X(31,34,777)" index="375300" value="1"/>
  <variable name="X(31,45,285)" index="376526" value="1"/>
  <variable name="X(31,49,561)" index="378520" value="1"/>
  <variable name="X(31,50,998)" index="380675" value="1"/>
  <variable name="X(31,85,1421)" index="382816" value="1"/>
  <variable name="X(32,31,1060)" index="384173" value="1"/>
  <variable name="X(32,50,1074)" index="385905" value="1"/>
  <variable name="X(32,86,521)" index="387070" value="1"/>
  <variable name="X(33,31,1686)" index="389953" value="1"/>
  <variable name="X(33,53,1665)" index="391650" value="1"/>
  <variable name="X(33,87,812)" index="392515" value="1"/>
  <variable name="X(34,31,1516)" index="394937" value="1"/>
  <variable name="X(34,48,777)" index="395916" value="1"/>
  <variable name="X(34,53,1117)" index="397974" value="1"/>
  <variable name="X(34,88,397)" index="398972" value="1"/>
  <variable name="X(35,17,1152)" index="401445" value="1"/>
  <variable name="X(35,89,561)" index="402572" value="1"/>
  <variable name="X(36,43,1180)" index="404909" value="1"/>
  <variable name="X(36,90,610)" index="406057" value="1"/>
  <variable name="X(37,17,1207)" index="408372" value="1"/>
  <variable name="X(37,91,34)" index="408917" value="1"/>
  <variable name="X(38,9,1221)" index="411822" value="1"/>
  <variable name="X(38,49,1219)" index="413538" value="1"/>
  <variable name="X(38,92,1260)" index="415297" value="1"/>
  <variable name="X(39,7,1272)" index="417027" value="1"/>
  <variable name="X(39,9,1260)" index="418733" value="1"/>
  <variable name="X(39,93,246)" index="419437" value="1"/>
  <variable name="X(40,9,1272)" index="422181" value="1"/>
  <variable name="X(40,13,1716)" index="424343" value="1"/>
  <variable name="X(40,54,579)" index="424924" value="1"/>
  <variable name="X(40,94,86)" index="426149" value="1"/>
  <variable name="X(41,43,1329)" index="429110" value="1"/>
  <variable name="X(41,95,1703)" index="431202" value="1"/>
  <variable name="X(42,43,1339)" index="432556" value="1"/>
  <variable name="X(42,96,39)" index="432974" value="1"/>
  <variable name="X(43,13,1180)" index="435833" value="1"/>
  <variable name="X(43,17,1339)" index="437710" value="1"/>
  <variable name="X(43,36,610)" index="438699" value="1"/>
  <variable name="X(43,41,1703)" index="441510" value="1"/>
  <variable name="X(43,42,39)" index="441564" value="1"/>
  <variable name="X(43,44,1706)" index="444949" value="1"/>
  <variable name="X(43,97,1399)" index="446360" value="1"/>
  <variable name="X(44,43,1399)" index="448078" value="1"/>
  <variable name="X(44,98,1706)" index="450103" value="1"/>
  <variable name="X(45,31,1421)" index="451536" value="1"/>
  <variable name="X(45,99,285)" index="452118" value="1"/>
  <variable name="X(46,29,1434)" index="454985" value="1"/>
  <variable name="X(46,100,526)" index="455795" value="1"/>
  <variable name="X(47,14,1487)" index="458474" value="1"/>
  <variable name="X(47,101,1469)" index="460174" value="1"/>
  <variable name="X(48,34,1516)" index="461939" value="1"/>
  <variable name="X(48,102,777)" index="462918" value="1"/>
  <variable name="X(49,5,7)" index="463866" value="1"/>
  <variable name="X(49,6,1219)" index="466796" value="1"/>
  <variable name="X(49,7,246)" index="467541" value="1"/>
  <variable name="X(49,9,1675)" index="470688" value="1"/>
  <variable name="X(49,13,185)" index="470916" value="1"/>
  <variable name="X(49,17,561)" index="473010" value="1"/>
  <variable name="X(49,31,285)" index="474452" value="1"/>
  <variable name="X(49,38,1207)" index="477092" value="1"/>
  <variable name="X(49,53,380)" index="477983" value="1"/>
  <variable name="X(49,103,1649)" index="480970" value="1"/>
  <variable name="X(50,16,998)" index="482037" value="1"/>
  <variable name="X(50,29,1625)" index="484382" value="1"/>
  <variable name="X(50,31,561)" index="485036" value="1"/>
  <variable name="X(50,32,521)" index="486714" value="1"/>
  <variable name="X(50,104,1074)" index="488985" value="1"/>
  <variable name="X(51,13,1649)" index="491278" value="1"/>
  <variable name="X(51,105,1625)" index="492972" value="1"/>
  <variable name="X(52,14,1652)" index="494717" value="1"/>
  <variable name="X(52,106,143)" index="494926" value="1"/>
  <variable name="X(53,25,1117)" index="497618" value="1"/>
  <variable name="X(53,33,1686)" index="499905" value="1"/>
  <variable name="X(53,34,397)" index="500334" value="1"/>
  <variable name="X(53,49,1675)" index="503330" value="1"/>
  <variable name="X(53,107,380)" index="503753" value="1"/>
  <variable name="X(54,40,1716)" index="506807" value="1"/>
  <variable name="X(54,108,579)" index="507388" value="1"/>
  <variable name="C(7,5)" index="508560" value="1"/>
  <variable name="C(7,8)" index="508561" value="2"/>
  <variable name="C(10,11)" index="508580" value="1"/>
  <variable name="C(26,1)" index="508655" value="3"/>
  <variable name="C(26,29)" index="508656" value="4"/>
  <variable name="C(34,37)" index="508692" value="1"/>
  <variable name="C(39,42)" index="508717" value="1"/>
  <variable name="C(86,5)" index="508932" value="1"/>
  <variable name="C(86,9)" index="508933" value="2"/>
  <variable name="C(86,40)" index="508934" value="3"/>
  <variable name="C(143,29)" index="509202" value="1"/>
  <variable name="C(143,14)" index="509203" value="2"/>
  <variable name="C(143,52)" index="509204" value="3"/>
  <variable name="C(146,31)" index="509216" value="1"/>
  <variable name="C(146,29)" index="509217" value="2"/>
  <variable name="C(146,1)" index="509218" value="3"/>
  <variable name="C(185,49)" index="509367" value="1"/>
  <variable name="C(185,13)" index="509368" value="2"/>
  <variable name="C(185,25)" index="509369" value="3"/>
  <variable name="C(185,12)" index="509370" value="4"/>
  <variable name="C(246,49)" index="509613" value="1"/>
  <variable name="C(246,7)" index="509614" value="2"/>
  <variable name="C(246,39)" index="509615" value="3"/>
  <variable name="C(285,49)" index="509769" value="1"/>
  <variable name="C(285,31)" index="509770" value="2"/>
  <variable name="C(285,45)" index="509771" value="3"/>
  <variable name="C(291,5)" index="509792" value="1"/>
  <variable name="C(291,2)" index="509793" value="2"/>
  <variable name="C(368,19)" index="510103" value="1"/>
  <variable name="C(380,49)" index="510181" value="1"/>
  <variable name="C(380,53)" index="510182" value="2"/>
  <variable name="C(397,25)" index="510264" value="1"/>
  <variable name="C(397,53)" index="510265" value="2"/>
  <variable name="C(397,34)" index="510266" value="3"/>
  <variable name="C(424,22)" index="510374" value="1"/>
  <variable name="C(521,16)" index="510741" value="1"/>
  <variable name="C(521,50)" index="510742" value="2"/>
  <variable name="C(521,32)" index="510743" value="3"/>
  <variable name="C(526,28)" index="510764" value="1"/>
  <variable name="C(526,29)" index="510765" value="2"/>
  <variable name="C(526,46)" index="510766" value="3"/>
  <variable name="C(547,20)" index="510873" value="1"/>
  <variable name="C(547,21)" index="510874" value="2"/>
  <variable name="C(561,31)" index="510928" value="1"/>
  <variable name="C(561,49)" index="510929" value="2"/>
  <variable name="C(561,17)" index="510930" value="3"/>
  <variable name="C(561,35)" index="510931" value="4"/>
  <variable name="C(579,13)" index="511013" value="1"/>
  <variable name="C(579,40)" index="511014" value="2"/>
  <variable name="C(579,54)" index="511015" value="3"/>
  <variable name="C(610,43)" index="511130" value="1"/>
  <variable name="C(610,36)" index="511131" value="2"/>
  <variable name="C(637,20)" index="511246" value="1"/>
  <variable name="C(684,20)" index="511472" value="1"/>
  <variable name="C(684,9)" index="511473" value="2"/>
  <variable name="C(684,5)" index="511474" value="3"/>
  <variable name="C(716,20)" index="511634" value="1"/>
  <variable name="C(716,19)" index="511635" value="2"/>
  <variable name="C(777,31)" index="511920" value="1"/>
  <variable name="C(777,34)" index="511921" value="2"/>
  <variable name="C(777,48)" index="511922" value="3"/>
  <variable name="C(812,31)" index="512074" value="1"/>
  <variable name="C(812,33)" index="512075" value="2"/>
  <variable name="C(870,25)" index="512321" value="1"/>
  <variable name="C(966,14)" index="512684" value="1"/>
  <variable name="C(997,28)" index="512805" value="1"/>
  <variable name="C(997,15)" index="512806" value="2"/>
  <variable name="C(998,50)" index="512808" value="1"/>
  <variable name="C(998,16)" index="512809" value="2"/>
  <variable name="C(1000,18)" index="512817" value="1"/>
  <variable name="C(1060,31)" index="513049" value="1"/>
  <variable name="C(1060,14)" index="513050" value="2"/>
  <variable name="C(1060,30)" index="513051" value="3"/>
  <variable name="C(1074,50)" index="513105" value="1"/>
  <variable name="C(1117,53)" index="513278" value="1"/>
  <variable name="C(1117,25)" index="513279" value="1.9999999999999982"/>
  <variable name="C(1117,26)" index="513280" value="2.9999999999999982"/>
  <variable name="C(1152,17)" index="513427" value="1"/>
  <variable name="C(1180,43)" index="513554" value="1"/>
  <variable name="C(1180,13)" index="513555" value="2"/>
  <variable name="C(1180,28)" index="513556" value="3"/>
  <variable name="C(1207,17)" index="513678" value="1"/>
  <variable name="C(1207,49)" index="513679" value="2.0000000000000018"/>
  <variable name="C(1219,49)" index="513729" value="1"/>
  <variable name="C(1219,6)" index="513730" value="2"/>
  <variable name="C(1221,9)" index="513735" value="1"/>
  <variable name="C(1260,9)" index="513892" value="1"/>
  <variable name="C(1260,38)" index="513893" value="2"/>
  <variable name="C(1272,9)" index="513942" value="1"/>
  <variable name="C(1272,39)" index="513943" value="2"/>
  <variable name="C(1272,7)" index="513944" value="3"/>
  <variable name="C(1339,43)" index="514229" value="1"/>
  <variable name="C(1339,17)" index="514230" value="2"/>
  <variable name="C(1339,20)" index="514231" value="3"/>
  <variable name="C(1352,29)" index="514293" value="1"/>
  <variable name="C(1399,43)" index="514489" value="1"/>
  <variable name="C(1421,31)" index="514577" value="1"/>
  <variable name="C(1434,29)" index="514625" value="1"/>
  <variable name="C(1434,31)" index="514626" value="2"/>
  <variable name="C(1434,4)" index="514627" value="3"/>
  <variable name="C(1469,47)" index="514791" value="0.99999999999999978"/>
  <variable name="C(1487,14)" index="514872" value="1"/>
  <variable name="C(1487,31)" index="514873" value="2"/>
  <variable name="C(1487,23)" index="514874" value="3"/>
  <variable name="C(1516,34)" index="515004" value="1"/>
  <variable name="C(1516,31)" index="515005" value="2"/>
  <variable name="C(1602,28)" index="515321" value="1"/>
  <variable name="C(1602,27)" index="515322" value="2"/>
  <variable name="C(1625,29)" index="515407" value="1"/>
  <variable name="C(1625,13)" index="515408" value="2"/>
  <variable name="C(1625,51)" index="515409" value="3"/>
  <variable name="C(1649,13)" index="515505" value="1"/>
  <variable name="C(1649,49)" index="515506" value="2"/>
  <variable name="C(1652,14)" index="515516" value="1"/>
  <variable name="C(1652,29)" index="515517" value="2"/>
  <variable name="C(1652,3)" index="515518" value="3"/>
  <variable name="C(1675,49)" index="515610" value="1"/>
  <variable name="C(1675,9)" index="515611" value="2"/>
  <variable name="C(1675,10)" index="515612" value="3"/>
  <variable name="C(1686,33)" index="515656" value="1"/>
  <variable name="C(1686,31)" index="515657" value="2"/>
  <variable name="C(1686,24)" index="515658" value="2.9999999999999991"/>
  <variable name="C(1703,13)" index="515719" value="1"/>
  <variable name="C(1703,43)" index="515720" value="2"/>
  <variable name="C(1703,41)" index="515721" value="3"/>
  <variable name="C(1706,44)" index="515735" value="1"/>
  <variable name="C(1716,40)" index="515774" value="1"/>
  <variable name="C(1716,13)" index="515775" value="2"/>
 </variables>
</CPLEXSolution>
